id: 382
name: nemsemm1
group: meszaros/misc
method: 1

Gurobi 7.0.2 (linux64, Matlab) logging started Tue Apr 17 15:57:59 2018


Gurobi 7.0.2 (linux64) logging started Tue Apr 17 15:57:59 2018

Optimize a model with 3945 rows, 71413 columns and 1050047 nonzeros
Coefficient statistics:
  Matrix range     [1e-05, 4e+03]
  Objective range  [1e-05, 1e+05]
  Bounds range     [1e-04, 5e+04]
  RHS range        [8e-02, 2e+04]
Presolve removed 1116 rows and 35361 columns
Presolve time: 0.15s
Presolved: 2829 rows, 36052 columns, 495916 nonzeros

Iteration    Objective       Primal Inf.    Dual Inf.      Time
       0   -4.9041754e+03   4.760449e+04   0.000000e+00      0s
    6545    5.1295960e+05   0.000000e+00   0.000000e+00      0s

Solved in 6545 iterations and 0.34 seconds
Optimal objective  5.129596008e+05
status: OPTIMAL
